120
150
67
84
21
24
54
33
21
85
38
37
37
72
86
30
64
56
81
81
38
45
67
73
37
85
24
65
77
73
51
66
99
54
33
96
59
70
49
65
62
96
64
40
93
85
49
82
57
70
34
25
45
60
49
93
34
83
99
96
70
91
51
85
70
93
96
57
40
45
67
54
77
73
22
73
99
21
23
57
77
59
65
69
81
51
91
93
57
38
91
99
77
80
80
95
87
96
35
99
51
51
99
62
51
21
54
55
32
47
70
99
82
85
67
23
51
65
27
73
83
67
